NAME          ClpDefau  FREE
ROWS
 N  OBJROW
 L  ZMUNI1_PCT
 L  ZMUNI2_PCT
 L  ZMUNI3_PCT
 L  ZMUNI4_PCT
 L  ZMUNI5_PCT
 L  ZMUNI6_PCT
 L  ZMUNI7_PCT
 L  ZMUNI8_PCT
 L  ZMUNI9_PCT
COLUMNS
    QMUNI1 OBJROW 1.          
    QMUNI1 ZMUNI1_PCT 29192.6384  
    QMUNI1 ZMUNI2_PCT 2682.6858   
    QMUNI1 ZMUNI3_PCT 5170.8221   
    QMUNI1 ZMUNI4_PCT 3886.15132  
    QMUNI1 ZMUNI5_PCT 1125.2404   
    QMUNI1 ZMUNI6_PCT 1330.7571   
    QMUNI1 ZMUNI7_PCT 3305.4352   
    QMUNI1 ZMUNI8_PCT 3096.5805   
    QMUNI1 ZMUNI9_PCT 2548.2178   
    QMUNI2 OBJROW 1.          
    QMUNI2 ZMUNI1_PCT 1749.5156   
    QMUNI2 ZMUNI2_PCT 33471.1075  
    QMUNI2 ZMUNI3_PCT 2577.7817   
    QMUNI2 ZMUNI4_PCT 2708.88806  
    QMUNI2 ZMUNI5_PCT  -80.204    
    QMUNI2 ZMUNI6_PCT 24.8909     
    QMUNI2 ZMUNI7_PCT 988.5788    
    QMUNI2 ZMUNI8_PCT 1292.6102   
    QMUNI2 ZMUNI9_PCT 1290.8935   
    QMUNI3 OBJROW 1.          
    QMUNI3 ZMUNI1_PCT 4165.5541   
    QMUNI3 ZMUNI2_PCT 2677.3453   
    QMUNI3 ZMUNI3_PCT 29885.8643  
    QMUNI3 ZMUNI4_PCT 5060.48203  
    QMUNI3 ZMUNI5_PCT 65.7082     
    QMUNI3 ZMUNI6_PCT 212.0971    
    QMUNI3 ZMUNI7_PCT 1498.2223   
    QMUNI3 ZMUNI8_PCT 1493.2633   
    QMUNI3 ZMUNI9_PCT 941.2765    
    QMUNI4 OBJROW 1.          
    QMUNI4 ZMUNI1_PCT 3876.0186   
    QMUNI4 ZMUNI2_PCT 3637.9814   
    QMUNI4 ZMUNI3_PCT 6083.107    
    QMUNI4 ZMUNI4_PCT 104178.38097
    QMUNI4 ZMUNI5_PCT 522.2321    
    QMUNI4 ZMUNI6_PCT 674.6292    
    QMUNI4 ZMUNI7_PCT 2118.8736   
    QMUNI4 ZMUNI8_PCT 2271.2708   
    QMUNI4 ZMUNI9_PCT 2091.217    
    QMUNI5 OBJROW 1.          
    QMUNI5 ZMUNI1_PCT 83.7327     
    QMUNI5 ZMUNI2_PCT 38.9099     
    QMUNI5 ZMUNI3_PCT 51.8799     
    QMUNI5 ZMUNI4_PCT 24.39023    
    QMUNI5 ZMUNI5_PCT 33100.5097  
    QMUNI5 ZMUNI6_PCT 2305.4123   
    QMUNI5 ZMUNI7_PCT 62.9425     
    QMUNI5 ZMUNI8_PCT 44.4412     
    QMUNI5 ZMUNI9_PCT 82.3975     
    QMUNI6 OBJROW 1.          
    QMUNI6 ZMUNI1_PCT 452.4231    
    QMUNI6 ZMUNI2_PCT 264.5492    
    QMUNI6 ZMUNI3_PCT 366.2109    
    QMUNI6 ZMUNI4_PCT 287.8666    
    QMUNI6 ZMUNI5_PCT 2875.2327   
    QMUNI6 ZMUNI6_PCT 31618.1182  
    QMUNI6 ZMUNI7_PCT 635.91      
    QMUNI6 ZMUNI8_PCT 479.126     
    QMUNI6 ZMUNI9_PCT 462.9135    
    QMUNI7 OBJROW 1.          
    QMUNI7 ZMUNI1_PCT 1247.9783   
    QMUNI7 ZMUNI2_PCT 607.9674    
    QMUNI7 ZMUNI3_PCT 1063.1561   
    QMUNI7 ZMUNI4_PCT 785.20775   
    QMUNI7 ZMUNI5_PCT  -249.8626  
    QMUNI7 ZMUNI6_PCT  -18.406    
    QMUNI7 ZMUNI7_PCT 28749.0844  
    QMUNI7 ZMUNI8_PCT 1933.4793   
    QMUNI7 ZMUNI9_PCT 271.225     
    QMUNI8 OBJROW 1.          
    QMUNI8 ZMUNI1_PCT 1544.1895   
    QMUNI8 ZMUNI2_PCT 1426.506    
    QMUNI8 ZMUNI3_PCT 1580.2383   
    QMUNI8 ZMUNI4_PCT 1283.35953  
    QMUNI8 ZMUNI5_PCT 232.029     
    QMUNI8 ZMUNI6_PCT 390.5296    
    QMUNI8 ZMUNI7_PCT 3007.8888   
    QMUNI8 ZMUNI8_PCT 28317.2608  
    QMUNI8 ZMUNI9_PCT 2251.4343   
    QMUNI9 OBJROW 1.          
    QMUNI9 ZMUNI1_PCT 520.6109    
    QMUNI9 ZMUNI2_PCT 851.059     
    QMUNI9 ZMUNI3_PCT 624.6567    
    QMUNI9 ZMUNI4_PCT 554.15631   
    QMUNI9 ZMUNI5_PCT  -259.7808  
    QMUNI9 ZMUNI6_PCT  -170.0402  
    QMUNI9 ZMUNI7_PCT 497.2458    
    QMUNI9 ZMUNI8_PCT 1081.0852   
    QMUNI9 ZMUNI9_PCT 25687.027   
RHS
    RHS ZMUNI1_PCT 0.2766585137
    RHS ZMUNI2_PCT 0.0511347126
    RHS ZMUNI3_PCT -0.043221099
    RHS ZMUNI4_PCT  -0.39561692
    RHS ZMUNI5_PCT -0.059240782
    RHS ZMUNI6_PCT -0.070352832
    RHS ZMUNI7_PCT  -0.16087238
    RHS ZMUNI8_PCT  -0.16557455
    RHS ZMUNI9_PCT  -0.14140543
BOUNDS
 LO BOUND QMUNI1 -0.001036229
 UP BOUND QMUNI1      1.1e+10
 LO BOUND QMUNI2 -0.000721356
 UP BOUND QMUNI2      1.1e+10
 LO BOUND QMUNI3 -0.000742949
 UP BOUND QMUNI3      1.1e+10
 LO BOUND QMUNI4 -0.000295322
 UP BOUND QMUNI4      1.1e+10
 LO BOUND QMUNI5 -0.00056343 
 UP BOUND QMUNI5      1.1e+10
 LO BOUND QMUNI6 -0.000747059
 UP BOUND QMUNI6      1.1e+10
 LO BOUND QMUNI7 -0.00034421 
 UP BOUND QMUNI7      1.1e+10
 LO BOUND QMUNI8 -0.000467923
 UP BOUND QMUNI8      1.1e+10
 LO BOUND QMUNI9 -0.000566817
 UP BOUND QMUNI9      1.1e+10
ENDATA
